100
30
30
12
28
30
8
4
21
10
29
27
1
11
2
2
15
10
16
5
30
32
1
31
19
28
9
24
23
23
32
3
18
12
18
8
27
2
20
5
25
16
20
6
5
29
27
20
9
28
31
26
20
21
24
27
15
8
31
7
27
20
26
23
24
30
21
9
9
8
19
23
24
5
8
30
2
18
19
26
1
29
20
18
20
25
32
24
29
3
9
28
17
32
17
5
24
12
27
19
7
26